3
10
21
22
35
40
41
47
65
71
76
77
89
101
104
107
119
136
138
145
146
152
154
156
160
168
186
194
196
198
199
200
204
209
211
213
215
222
223
225
234
246
249
250
275
276
277
278
282
286
309
329
334
335
340
344
345
348
371
375
381
384
387
388
406
408
410
420
422
431
434
440
455
466
547
567
590
592
601
610
615
623
957
960
962
970
971
979
994